# Solution for model GasLib-40
# Objective value = 4.8946889621630831e+01
loadshed[innode_1] 0
loadshed[innode_2] 0
loadshed[innode_3] 0
loadshed[innode_4] 0
loadshed[innode_5] 0
loadshed[innode_6] 0
loadshed[innode_7] 0
loadshed[innode_8] 0
loadshed[source_1] -1.7468658785799751e-01
loadshed[source_2] 1.4007891257917160e-01
loadshed[source_3] 3.4422120945460388e-01
loadshed[sink_1] 1.0620565791195746e-01
loadshed[sink_2] 0
loadshed[sink_3] 0
loadshed[sink_4] 0
loadshed[sink_5] 0
loadshed[sink_6] 0
loadshed[sink_7] 0
loadshed[sink_8] 0
loadshed[sink_9] 0
loadshed[sink_10] 0
loadshed[sink_11] 0
loadshed[sink_12] 1
loadshed[sink_13] 0
loadshed[sink_14] 0
loadshed[sink_15] 0
loadshed[sink_16] 0
loadshed[sink_17] 0
loadshed[sink_18] 0
loadshed[sink_19] 0
loadshed[sink_20] 0
loadshed[sink_21] 1
loadshed[sink_22] 0
loadshed[sink_23] 0
loadshed[sink_24] 8.8672517245527793e-01
loadshed[sink_25] 0
loadshed[sink_26] 0
loadshed[sink_27] 0
loadshed[sink_28] 0
loadshed[sink_29] 0
flow[source_1,sink_3] 1.8570652897630077e+02
flow[innode_1,sink_16] 1.6354166666666970e+01
flow[innode_6,sink_13] 1.0806915508570620e+01
flow[sink_13,sink_14] -5.5472511580960475e+00
flow[sink_14,sink_10] -2.1901417824763257e+01
flow[sink_25,sink_26] 0
flow[sink_26,sink_9] 6.6340595790519188e+01
flow[sink_9,sink_18] 4.9986429123852517e+01
flow[sink_26,sink_4] -82.6947624571859
flow[sink_4,sink_20] -1.0276171410557873e+02
flow[sink_18,sink_6] 3.3632262457185846e+01
flow[sink_25,innode_8] -1.5299819564296439e+02
flow[sink_6,sink_7] -1.3693332512378987e+01
flow[sink_6,sink_22] 3.0971428302898197e+01
flow[sink_7,sink_24] 1.8525154088043103e+00
flow[sink_22,sink_1] 1.4617261636231531e+01
flow[sink_24,sink_21] 0
flow[sink_21,sink_12] 0
flow[sink_7,sink_5] -3.1900014587849959e+01
flow[sink_5,sink_17] -4.8254181254516624e+01
flow[sink_17,sink_4] -3.7127849817261693e+00
flow[sink_17,sink_8] -6.0895562939457122e+01
flow[sink_3,sink_23] 16.3541666666697
flow[sink_8,sink_20] -77.2497296061238
flow[sink_25,sink_20] 1.9636561037836924e+02
flow[sink_25,sink_15] -7.0528496910642687e+01
flow[sink_15,sink_29] -8.6882663577309359e+01
flow[sink_29,sink_28] 1.6354166666667879e+01
flow[sink_29,sink_2] 1.6354166666684250e+01
flow[sink_2,sink_15] 0
flow[sink_29,innode_7] -1.3594516357732749e+02
flow[innode_4,sink_19] 3.9543377431848064e+01
flow[sink_19,innode_3] 70.9639178247632
flow[innode_4,innode_5] 6.4128873726248770e+01
flow[sink_27,innode_5] -6.4128873726248770e+01
flow[sink_27,sink_19] 4.7774707059582106e+01
flow[sink_10,sink_11] 3.2708333333333641e+01
flow[sink_10,innode_2] 0
flow[sink_10,innode_3] -70.9639178247632
flow[innode_6,sink_25] -1.0806915508570620e+01
flow[sink_11,innode_1] 1.6354166666666970e+01
flow[sink_19,innode_2] 0
flow[source_3,innode_4] 1.0367225115809683e+02
flow[source_2,innode_7] 1.3594516357732749e+02
flow[sink_3,innode_8] 1.5299819564296439e+02
pressure[innode_1] 7.5324280653700157e+01
pressure[innode_2] 75.4759819613037
pressure[innode_3] 7.9254105462904889e+01
pressure[innode_4] 81.01325
pressure[innode_5] 80.9691387791251
pressure[innode_6] 7.4489725091707314e+01
pressure[innode_7] 81.01325
pressure[innode_8] 8.0392504016097675e+01
pressure[source_1] 81.01325
pressure[source_2] 81.01325
pressure[source_3] 81.01325
pressure[sink_1] 1.0132500000000002e+00
pressure[sink_2] 7.6962979940409284e+01
pressure[sink_3] 8.0392504016097675e+01
pressure[sink_4] 2.0137686830332040e+01
pressure[sink_5] 1.6401208718639186e+01
pressure[sink_6] 2.9462652946045838e+00
pressure[sink_7] 3.1342421100349394e+00
pressure[sink_8] 2.2293544223348484e+01
pressure[sink_9] 5.6530048294987338e+00
pressure[sink_10] 75.4759819613037
pressure[sink_11] 7.5324280653700157e+01
pressure[sink_12] 1.01325
pressure[sink_13] 7.4430148372511923e+01
pressure[sink_14] 7.4440075650980631e+01
pressure[sink_15] 7.4831857026231276e+01
pressure[sink_16] 7.4302630818882477e+01
pressure[sink_17] 1.9995796430860509e+01
pressure[sink_18] 3.8443468386163797e+00
pressure[sink_19] 7.9411247023135871e+01
pressure[sink_20] 2.7676763993009970e+01
pressure[sink_21] 1.01325
pressure[sink_22] 1.9640408407247403e+00
pressure[sink_23] 8.0227786004437888e+01
pressure[sink_24] 1.01325
pressure[sink_25] 7.4489725091707314e+01
pressure[sink_26] 9.6236607079258
pressure[sink_27] 8.0436987624614559e+01
pressure[sink_28] 7.7081967165255762e+01
pressure[sink_29] 7.7377249438872937e+01
interdiction[source_1,sink_3] 0
interdiction[innode_1,sink_16] 0
interdiction[innode_6,sink_13] 0
interdiction[sink_13,sink_14] 0
interdiction[sink_14,sink_10] 0
interdiction[sink_25,sink_26] 1
interdiction[sink_26,sink_9] 0
interdiction[sink_9,sink_18] 0
interdiction[sink_26,sink_4] 0
interdiction[sink_4,sink_20] 0
interdiction[sink_18,sink_6] 0
interdiction[sink_25,innode_8] 0
interdiction[sink_6,sink_7] 0
interdiction[sink_6,sink_22] 0
interdiction[sink_7,sink_24] 0
interdiction[sink_22,sink_1] 0
interdiction[sink_24,sink_21] 0
interdiction[sink_21,sink_12] 0
interdiction[sink_7,sink_5] 0
interdiction[sink_5,sink_17] 0
interdiction[sink_17,sink_4] 0
interdiction[sink_17,sink_8] 0
interdiction[sink_3,sink_23] 0
interdiction[sink_8,sink_20] 0
interdiction[sink_25,sink_20] 0
interdiction[sink_25,sink_15] 0
interdiction[sink_15,sink_29] 0
interdiction[sink_29,sink_28] 0
interdiction[sink_29,sink_2] 0
interdiction[sink_2,sink_15] 1
interdiction[sink_29,innode_7] 0
interdiction[innode_4,sink_19] 0
interdiction[sink_19,innode_3] 0
interdiction[innode_4,innode_5] 0
interdiction[sink_27,innode_5] 0
interdiction[sink_27,sink_19] 0
interdiction[sink_10,sink_11] 0
interdiction[sink_10,innode_2] 0
interdiction[sink_10,innode_3] 0
interdiction[innode_6,sink_25] 0
interdiction[sink_11,innode_1] 0
interdiction[sink_19,innode_2] 1
interdiction[source_3,innode_4] 0
interdiction[source_2,innode_7] 0
interdiction[sink_3,innode_8] 0
WCcheckFlow[source_1,sink_3] 39
WCcheckFlow[innode_1,sink_16] 1
WCcheckFlow[innode_6,sink_13] 13
WCcheckFlow[sink_13,sink_14] 12
WCcheckFlow[sink_14,sink_10] 11
WCcheckFlow[sink_25,sink_26] 0
WCcheckFlow[sink_26,sink_9] 12
WCcheckFlow[sink_9,sink_18] 11
WCcheckFlow[sink_26,sink_4] -13
WCcheckFlow[sink_4,sink_20] -14
WCcheckFlow[sink_18,sink_6] 10
WCcheckFlow[sink_25,innode_8] -36
WCcheckFlow[sink_6,sink_7] 7
WCcheckFlow[sink_6,sink_22] 2
WCcheckFlow[sink_7,sink_24] 3
WCcheckFlow[sink_22,sink_1] 1
WCcheckFlow[sink_24,sink_21] 2
WCcheckFlow[sink_21,sink_12] 1
WCcheckFlow[sink_7,sink_5] 3
WCcheckFlow[sink_5,sink_17] 2
WCcheckFlow[sink_17,sink_4] 0
WCcheckFlow[sink_17,sink_8] 1
WCcheckFlow[sink_3,sink_23] 1
WCcheckFlow[sink_8,sink_20] 0
WCcheckFlow[sink_25,sink_20] 15
WCcheckFlow[sink_25,sink_15] 6
WCcheckFlow[sink_15,sink_29] 5
WCcheckFlow[sink_29,sink_28] 1
WCcheckFlow[sink_29,sink_2] 1
WCcheckFlow[sink_2,sink_15] 0
WCcheckFlow[sink_29,innode_7] 2
WCcheckFlow[innode_4,sink_19] -4
WCcheckFlow[sink_19,innode_3] -5
WCcheckFlow[innode_4,innode_5] 2
WCcheckFlow[sink_27,innode_5] -1
WCcheckFlow[sink_27,sink_19] 0
WCcheckFlow[sink_10,sink_11] 3
WCcheckFlow[sink_10,innode_2] 1
WCcheckFlow[sink_10,innode_3] 6
WCcheckFlow[innode_6,sink_25] -14
WCcheckFlow[sink_11,innode_1] 2
WCcheckFlow[sink_19,innode_2] 0
WCcheckFlow[source_3,innode_4] -1
WCcheckFlow[source_2,innode_7] -1
WCcheckFlow[sink_3,innode_8] 37
